100
1000
199
198
198
198
198
197
197
194
194
194
193
193
193
191
191
189
189
188
188
187
186
185
184
183
183
183
183
182
182
180
180
180
178
178
177
177
177
177
175
175
174
174
174
174
174
173
173
173
172
171
170
170
170
170
169
169
168
167
167
167
166
165
164
164
164
163
163
162
161
161
160
160
160
160
158
158
158
157
157
157
157
156
156
156
155
155
154
154
153
153
152
152
151
151
151
151
151
150
150
150
